100 8
487 209
526 908
947 180
762 354
872 373
488 537
247 519
393 684
222 536
796 379
571 433
453 480
494 413
468 991
339 563
163 582
816 88
771 324
447 603
298 472
594 472
497 965
506 696
568 570
457 265
297 579
603 565
219 649
526 393
254 443
398 555
575 629
950 177
635 744
442 368
728 359
231 503
444 926
445 845
186 635
830 463
523 428
600 535
563 743
947 161
798 240
507 451
425 455
869 113
651 856
475 710
236 510
252 603
454 254
492 427
577 708
297 546
439 755
798 439
689 872
686 564
748 558
508 924
694 406
278 813
402 494
519 476
713 482
175 505
288 770
915 218
469 329
554 597
163 492
345 459
594 896
243 668
556 776
263 659
562 612
602 268
589 821
338 241
438 539
606 241
577 852
610 755
587 638
345 738
277 759
421 284
872 429
609 478
733 303
648 796
488 334
661 708
339 234
413 482
916 137
